NAME : amz0102.159667_150667.tour
COMMENT : Cost = 159667_150667
COMMENT : Found by LKH-AMZ [Keld Helsgaun] Sun May 11 12:15:17 2025
COMMENT : TW viol.: 0 #: 0
TYPE : TOUR
DIMENSION : 174
TOUR_SECTION
78
113
37
143
105
65
142
30
107
38
157
2
67
43
11
123
41
17
27
64
49
106
84
162
59
18
152
29
131
101
74
34
115
155
114
10
7
138
33
15
86
124
128
36
173
146
165
144
68
13
168
77
14
44
171
58
137
9
60
99
42
87
116
119
25
100
141
170
12
3
63
1
22
71
5
108
83
156
26
19
145
62
73
130
103
122
158
132
169
160
126
4
81
70
127
154
51
129
104
54
61
53
45
88
72
79
147
139
55
120
21
151
167
163
117
75
16
90
97
118
92
135
20
133
95
111
48
40
161
121
148
150
80
47
140
69
91
76
98
28
136
112
52
166
125
82
46
109
94
31
159
56
66
32
50
39
93
174
57
85
102
35
153
134
149
24
164
23
6
96
8
110
172
89
-1
EOF
